0	0	0
34	-16	5
70	0	24
84	-28	3
4	0	20
58	-22	26
22	42	23
72	-28	15
18	14	3
18	0	20
60	-12	16
22	16	9
18	-8	21
6	48	3
-2	0	24
44	-10	14
66	-22	6
38	14	6
16	-2	13
-8	-12	5
36	-24	3
-8	12	3
84	-20	20
32	-26	16
66	20	22
-6	-34	10
42	32	12
48	56	20
12	62	24
46	-22	6
-6	36	1
28	-16	2
64	-14	13
10	-16	7
66	38	6
84	14	24
32	52	19
88	38	4
36	-6	7
